123
1 0
2 6
3 15
4 27
5 33
6 44
7 59
8 2
9 15
10 29
11 68
12 76
13 84
14 0
15 13
16 72
17 88
18 95
19 103
20 115
21 0
22 13
23 20
24 27
25 40
26 55
27 61
28 72
29 42
30 48
31 57
32 70
33 86
34 92
35 106
36 117
37 7
38 21
39 34
40 49
41 62
42 78
43 97
44 109
----------
%%%mzn-stat initTime=0.004358
%%%mzn-stat solveTime=180.001
%%%mzn-stat solutions=8
%%%mzn-stat variables=600
%%%mzn-stat propagators=450
%%%mzn-stat propagations=257339579
%%%mzn-stat nodes=4529337
%%%mzn-stat failures=2264642
%%%mzn-stat restarts=0
%%%mzn-stat peakDepth=56
%%%mzn-stat-end
